************************************************************************
file with basedata            : md381_.bas
initial value random generator: 378366399
************************************************************************
projects                      :  1
jobs (incl. supersource/sink ):  22
horizon                       :  156
RESOURCES
  - renewable                 :  2   R
  - nonrenewable              :  2   N
  - doubly constrained        :  0   D
************************************************************************
PROJECT INFORMATION:
pronr.  #jobs rel.date duedate tardcost  MPM-Time
    1     20      0       20       16       20
************************************************************************
PRECEDENCE RELATIONS:
jobnr.    #modes  #successors   successors
   1        1          3           2   3   4
   2        3          1           9
   3        3          3           5   8  14
   4        3          3           6   7   9
   5        3          3          10  13  20
   6        3          3           8  14  21
   7        3          3          11  12  14
   8        3          3          12  15  16
   9        3          2          15  17
  10        3          1          11
  11        3          2          18  21
  12        3          2          18  20
  13        3          2          15  17
  14        3          2          16  18
  15        3          1          19
  16        3          1          20
  17        3          1          19
  18        3          1          19
  19        3          1          22
  20        3          1          22
  21        3          1          22
  22        1          0        
************************************************************************
REQUESTS/DURATIONS:
jobnr. mode duration  R 1  R 2  N 1  N 2
------------------------------------------------------------------------
  1      1     0       0    0    0    0
  2      1     3       5    5    5    5
         2     4       4    4    4    3
         3    10       3    4    2    1
  3      1     3       8    6    8    9
         2     8       4    4    7    9
         3    10       4    3    6    8
  4      1     7       5    4    5    9
         2     8       4    4    5    9
         3    10       3    3    3    8
  5      1     2       4    6    5    8
         2     8       3    5    1    3
         3     8       3    4    1    5
  6      1     1       5    6    7    6
         2     2       3    5    6    6
         3     4       2    5    5    5
  7      1     1       3    8    7    3
         2     3       2    8    6    3
         3     7       2    7    6    2
  8      1     2      10   10    8    5
         2     2      10   10    6    7
         3     7       9   10    4    5
  9      1     2       8    9   10    6
         2     8       7    7    7    6
         3     9       6    6    5    5
 10      1     3       4    7    7    6
         2     6       4    6    7    4
         3     7       3    6    6    2
 11      1     1       9    8    7    8
         2     5       8    4    6    7
         3     8       8    2    4    6
 12      1     1       4    8    7    8
         2     1       6    6    7    9
         3     5       2    3    6    5
 13      1     3       9    7    7    5
         2     3       8    7    8    6
         3     7       8    7    1    4
 14      1     3       9    6    4    7
         2     7       9    6    3    7
         3     9       8    5    3    6
 15      1     6       6    9    6    9
         2     9       3    9    4    7
         3     9       4    7    3    9
 16      1     1       9    4    8    5
         2     2       8    3    5    3
         3     5       8    2    2    3
 17      1     1       7    4    7    2
         2     4       7    3    4    1
         3     8       7    2    3    1
 18      1     1       8    8    5    6
         2     3       5    6    3    5
         3     9       3    4    1    5
 19      1     4       3    8    8    9
         2     6       2    6    7    8
         3     7       2    4    7    7
 20      1     8       9    9    6    4
         2     9       8    7    5    3
         3    10       4    5    4    2
 21      1     1       5    7   10    5
         2     2       4    7    9    4
         3     7       3    6    9    1
 22      1     0       0    0    0    0
************************************************************************
RESOURCEAVAILABILITIES:
  R 1  R 2  N 1  N 2
   16   17  138  129
************************************************************************
MAXIMAL LAGS:
from  to  type  delay
    1   22   ES      0
    1    2   ES      0
    2   22   ES      0
    1    3   ES      0
    3   22   ES      0
    1    4   ES      0
    4   22   ES      0
    1    5   ES      0
    5   22   ES      0
    1    6   ES      0
    6   22   ES      0
    1    7   ES      0
    7   22   ES      0
    1    8   ES      0
    8   22   ES      0
    1    9   ES      0
    9   22   ES      0
    1   10   ES      0
   10   22   ES      0
    1   11   ES      0
   11   22   ES      0
    1   12   ES      0
   12   22   ES      0
    1   13   ES      0
   13   22   ES      0
    1   14   ES      0
   14   22   ES      0
    1   15   ES      0
   15   22   ES      0
    1   16   ES      0
   16   22   ES      0
    1   17   ES      0
   17   22   ES      0
    1   18   ES      0
   18   22   ES      0
    1   19   ES      0
   19   22   ES      0
    1   20   ES      0
   20   22   ES      0
    1   21   ES      0
   21   22   ES      0
    1   22   ES      0
    2    9   SS    -12
    2    9   SE     -3
    2    9   ES     10
    2    9   EE      1
    3    5   SS      4
    3    5   SE      4
    5    3   SE      0
    3    5   ES      0
    3    5   EE     10
    3    8   SS     11
    3    8   SE      8
    3    8   ES      7
    3    8   EE     10
    3   14   SS      5
    3   14   SE      8
    3   14   ES      7
    3   14   EE    -11
    4    6   SS      5
    4    6   SE     10
    4    6   ES      2
    4    6   EE      0
    4    7   SS     -6
    4    7   SE     -4
    4    7   ES      9
    4    7   EE     -7
    4    9   SS      3
    4    9   SE     -7
    4    9   ES     -3
    4    9   EE      2
    5   10   SS      2
    5   10   SE     -9
    5   10   ES     -9
    5   10   EE     -1
    5   13   SS      2
    5   13   SE      5
    5   13   ES      2
    5   13   EE     -6
    5   20   SS      3
    5   20   SE      5
    5   20   ES    -10
    5   20   EE     -2
    6    8   SS      1
    6    8   SE     -9
    6    8   ES      0
    6    8   EE     -7
    6   14   SS    -10
    6   14   SE     11
    6   14   ES      3
    6   14   EE     -6
    6   21   SS      0
    6   21   SE      3
    6   21   ES    -10
    6   21   EE     -5
    7   11   SS     11
    7   11   SE      4
    7   11   ES     11
    7   11   EE      3
    7   12   SS     -6
    7   12   SE    -10
    7   12   ES     -3
    7   12   EE    -12
    7   14   SS     10
    7   14   SE      8
    7   14   ES     -6
    7   14   EE    -10
    8   12   SS      6
    8   12   SE     10
    8   12   ES     -9
    8   12   EE      0
    8   15   SS      1
    8   15   SE      1
    8   15   ES     12
    8   15   EE     10
    8   16   SS     -9
    8   16   SE      1
    8   16   ES     -7
    8   16   EE     -3
    9   15   SS     11
    9   15   SE      9
    9   15   ES      9
    9   15   EE      0
    9   17   SS      7
    9   17   SE     11
    9   17   ES      5
    9   17   EE      4
   10   11   SS     11
   10   11   SE      6
   10   11   ES      8
   10   11   EE     11
   11   18   SS      1
   11   18   SE      3
   11   18   ES      0
   11   18   EE     -7
   11   21   SS     11
   11   21   SE    -10
   11   21   ES      4
   11   21   EE     -8
   12   18   SS     -7
   12   18   SE     -3
   12   18   ES      2
   12   18   EE      6
   12   20   SS      8
   12   20   SE      8
   12   20   ES     -7
   12   20   EE     -8
   13   15   SS     -4
   13   15   SE      3
   13   15   ES      0
   13   15   EE      8
   13   17   SS      5
   13   17   SE      1
   13   17   ES      2
   13   17   EE    -11
   14   16   SS      9
   14   16   SE      2
   14   16   ES     -9
   14   16   EE      0
   14   18   SS      2
   14   18   SE    -10
   14   18   ES      8
   14   18   EE     -4
   15   19   SS      4
   15   19   SE      9
   15   19   ES      6
   15   19   EE     -1
   16   20   SS      2
   16   20   SE      7
   16   20   ES     -8
   16   20   EE     -2
   17   19   SS      2
   17   19   SE      5
   17   19   ES     -1
   17   19   EE     10
   18   19   SS     -7
   18   19   SE     -6
   18   19   ES     -2
   18   19   EE     -8
************************************************************************
